p edge 320 960
e 1 68
e 1 127
e 1 184
e 2 31
e 2 114
e 2 262
e 3 22
e 3 173
e 3 282
e 4 26
e 4 180
e 4 296
e 5 37
e 5 120
e 5 282
e 6 100
e 6 145
e 6 309
e 7 21
e 7 98
e 7 292
e 8 26
e 8 62
e 8 148
e 9 57
e 9 248
e 9 309
e 10 31
e 10 161
e 10 225
e 11 81
e 11 138
e 11 179
e 12 105
e 12 129
e 12 183
e 13 54
e 13 70
e 13 277
e 14 2
e 14 191
e 14 202
e 15 197
e 15 245
e 15 253
e 16 36
e 16 133
e 16 313
e 17 166
e 17 251
e 17 266
e 18 103
e 18 106
e 18 228
e 19 34
e 19 81
e 19 100
e 20 219
e 20 220
e 20 283
e 21 200
e 21 234
e 21 299
e 22 191
e 22 205
e 22 237
e 23 191
e 23 210
e 23 239
e 24 8
e 24 102
e 24 180
e 25 133
e 25 137
e 25 144
e 26 175
e 26 276
e 26 315
e 27 60
e 27 85
e 27 154
e 28 50
e 28 154
e 28 277
e 29 17
e 29 51
e 29 311
e 30 139
e 30 216
e 30 261
e 31 19
e 31 220
e 31 303
e 32 2
e 32 125
e 32 234
e 33 96
e 33 102
e 33 166
e 34 208
e 34 265
e 34 267
e 35 42
e 35 50
e 35 54
e 36 35
e 36 110
e 36 287
e 37 20
e 37 174
e 37 225
e 38 43
e 38 83
e 38 203
e 39 55
e 39 145
e 39 307
e 40 76
e 40 123
e 40 262
e 41 89
e 41 149
e 41 152
e 42 80
e 42 233
e 42 310
e 43 14
e 43 39
e 43 149
e 44 18
e 44 37
e 44 259
e 45 89
e 45 154
e 45 261
e 46 169
e 46 264
e 46 291
e 47 54
e 47 243
e 47 294
e 48 49
e 48 91
e 48 93
e 49 75
e 49 128
e 49 177
e 50 129
e 50 173
e 50 227
e 51 103
e 51 170
e 51 261
e 52 13
e 52 189
e 52 287
e 53 10
e 53 35
e 53 38
e 54 24
e 54 83
e 54 271
e 55 84
e 55 149
e 55 154
e 56 18
e 56 73
e 56 174
e 57 7
e 57 173
e 57 207
e 58 86
e 58 193
e 58 314
e 59 126
e 59 216
e 59 237
e 60 135
e 60 198
e 60 229
e 61 50
e 61 77
e 61 115
e 62 141
e 62 294
e 62 295
e 63 45
e 63 61
e 63 242
e 64 65
e 64 189
e 64 281
e 65 188
e 65 291
e 65 299
e 66 37
e 66 94
e 66 189
e 67 103
e 67 142
e 67 155
e 68 16
e 68 98
e 68 140
e 69 59
e 69 164
e 69 240
e 70 163
e 70 189
e 70 287
e 71 4
e 71 133
e 71 181
e 72 42
e 72 48
e 72 247
e 73 28
e 73 59
e 73 320
e 74 42
e 74 112
e 74 296
e 75 4
e 75 20
e 75 215
e 76 136
e 76 173
e 76 270
e 77 185
e 77 253
e 77 288
e 78 72
e 78 110
e 78 210
e 79 46
e 79 245
e 79 289
e 80 32
e 80 270
e 80 304
e 81 16
e 81 138
e 81 222
e 82 21
e 82 119
e 82 286
e 83 292
e 83 306
e 83 310
e 84 8
e 84 130
e 84 280
e 85 134
e 85 229
e 85 293
e 86 104
e 86 196
e 86 212
e 87 10
e 87 25
e 87 110
e 88 83
e 88 104
e 88 151
e 89 137
e 89 262
e 89 301
e 90 67
e 90 250
e 90 266
e 91 43
e 91 102
e 91 153
e 92 121
e 92 194
e 92 203
e 93 158
e 93 184
e 93 232
e 94 82
e 94 202
e 94 249
e 95 69
e 95 151
e 95 230
e 96 20
e 96 66
e 96 117
e 97 150
e 97 278
e 97 288
e 98 131
e 98 235
e 98 315
e 99 45
e 99 267
e 99 278
e 100 138
e 100 175
e 100 264
e 101 206
e 101 209
e 101 241
e 102 209
e 102 233
e 102 279
e 103 151
e 103 187
e 103 301
e 104 114
e 104 167
e 104 187
e 105 115
e 105 117
e 105 205
e 106 139
e 106 141
e 106 233
e 107 90
e 107 124
e 107 307
e 108 131
e 108 234
e 108 248
e 109 12
e 109 171
e 109 179
e 110 201
e 110 272
e 110 305
e 111 34
e 111 138
e 111 185
e 112 68
e 112 190
e 112 193
e 113 175
e 113 268
e 113 287
e 114 11
e 114 196
e 114 233
e 115 13
e 115 91
e 115 159
e 116 56
e 116 171
e 116 280
e 117 85
e 117 90
e 117 110
e 118 158
e 118 275
e 118 276
e 119 141
e 119 282
e 119 318
e 120 218
e 120 268
e 120 314
e 121 99
e 121 113
e 121 129
e 122 87
e 122 91
e 122 238
e 123 85
e 123 217
e 123 263
e 124 18
e 124 127
e 124 256
e 125 39
e 125 90
e 125 101
e 126 6
e 126 78
e 126 283
e 127 18
e 127 100
e 127 160
e 128 3
e 128 66
e 128 199
e 129 64
e 129 74
e 129 77
e 130 154
e 130 189
e 130 299
e 131 130
e 131 252
e 131 278
e 132 4
e 132 48
e 132 271
e 133 95
e 133 239
e 133 278
e 134 72
e 134 86
e 134 195
e 135 61
e 135 162
e 135 290
e 136 20
e 136 99
e 136 140
e 137 106
e 137 159
e 137 208
e 138 87
e 138 115
e 138 189
e 139 78
e 139 101
e 139 194
e 140 164
e 140 242
e 140 294
e 141 33
e 141 39
e 141 191
e 142 60
e 142 138
e 142 300
e 143 5
e 143 50
e 143 80
e 144 143
e 144 182
e 144 204
e 145 17
e 145 54
e 145 315
e 146 168
e 146 180
e 146 272
e 147 43
e 147 183
e 147 290
e 148 120
e 148 191
e 148 293
e 149 147
e 149 192
e 149 258
e 150 105
e 150 162
e 150 236
e 151 227
e 151 255
e 151 318
e 152 28
e 152 132
e 152 146
e 153 165
e 153 192
e 153 232
e 154 142
e 154 214
e 154 298
e 155 141
e 155 148
e 155 255
e 156 179
e 156 204
e 156 271
e 157 122
e 157 126
e 157 245
e 158 66
e 158 77
e 158 317
e 159 43
e 159 72
e 159 99
e 160 37
e 160 65
e 160 220
e 161 79
e 161 125
e 161 259
e 162 116
e 162 179
e 162 181
e 163 46
e 163 51
e 163 302
e 164 23
e 164 173
e 164 274
e 165 21
e 165 180
e 165 258
e 166 177
e 166 206
e 166 284
e 167 17
e 167 65
e 167 276
e 168 9
e 168 80
e 168 204
e 169 145
e 169 218
e 169 225
e 170 68
e 170 152
e 170 220
e 171 61
e 171 271
e 171 288
e 172 242
e 172 277
e 172 281
e 173 139
e 173 226
e 173 292
e 174 4
e 174 78
e 174 210
e 175 125
e 175 232
e 175 236
e 176 108
e 176 206
e 176 255
e 177 92
e 177 246
e 177 256
e 178 15
e 178 236
e 178 301
e 179 89
e 179 150
e 179 308
e 180 194
e 180 210
e 180 279
e 181 70
e 181 166
e 181 243
e 182 23
e 182 183
e 182 223
e 183 163
e 183 191
e 183 318
e 184 134
e 184 215
e 184 216
e 185 34
e 185 207
e 185 304
e 186 47
e 186 84
e 186 174
e 187 123
e 187 195
e 187 304
e 188 135
e 188 221
e 188 314
e 189 67
e 189 100
e 189 138
e 190 96
e 190 203
e 190 307
e 191 49
e 191 280
e 191 320
e 192 13
e 192 23
e 192 31
e 193 100
e 193 138
e 193 215
e 194 27
e 194 236
e 194 258
e 195 92
e 195 98
e 195 224
e 196 168
e 196 194
e 196 264
e 197 14
e 197 89
e 197 215
e 198 12
e 198 63
e 198 126
e 199 127
e 199 151
e 199 259
e 200 37
e 200 98
e 200 125
e 201 16
e 201 30
e 201 164
e 202 19
e 202 201
e 202 211
e 203 25
e 203 121
e 203 211
e 204 12
e 204 155
e 204 182
e 205 34
e 205 86
e 205 119
e 206 90
e 206 150
e 206 274
e 207 45
e 207 52
e 207 257
e 208 47
e 208 131
e 208 286
e 209 97
e 209 184
e 209 189
e 210 46
e 210 122
e 210 287
e 211 117
e 211 240
e 211 276
e 212 161
e 212 176
e 212 230
e 213 8
e 213 157
e 213 227
e 214 44
e 214 158
e 214 300
e 215 37
e 215 142
e 215 312
e 216 66
e 216 171
e 216 201
e 217 71
e 217 157
e 217 276
e 218 44
e 218 91
e 218 239
e 219 103
e 219 136
e 219 172
e 220 77
e 220 293
e 220 293
e 221 60
e 221 122
e 221 297
e 222 31
e 222 105
e 222 260
e 223 173
e 223 188
e 223 296
e 224 41
e 224 81
e 224 235
e 225 153
e 225 244
e 225 255
e 226 71
e 226 193
e 226 199
e 227 89
e 227 108
e 227 264
e 228 27
e 228 231
e 228 271
e 229 14
e 229 275
e 229 316
e 230 243
e 230 298
e 230 300
e 231 45
e 231 195
e 231 288
e 232 41
e 232 123
e 232 316
e 233 85
e 233 193
e 233 217
e 234 44
e 234 178
e 234 235
e 235 59
e 235 130
e 235 207
e 236 119
e 236 121
e 236 265
e 237 23
e 237 200
e 237 206
e 238 223
e 238 229
e 238 244
e 239 9
e 239 82
e 239 213
e 240 5
e 240 233
e 240 284
e 241 33
e 241 163
e 241 313
e 242 24
e 242 75
e 242 296
e 243 142
e 243 167
e 243 178
e 244 28
e 244 58
e 244 246
e 245 97
e 245 132
e 245 226
e 246 75
e 246 99
e 246 270
e 247 111
e 247 142
e 247 264
e 248 14
e 248 94
e 248 156
e 249 28
e 249 38
e 249 200
e 250 87
e 250 106
e 250 249
e 251 241
e 251 272
e 251 278
e 252 29
e 252 205
e 252 251
e 253 135
e 253 250
e 253 299
e 254 172
e 254 217
e 254 272
e 255 88
e 255 179
e 255 236
e 256 51
e 256 93
e 256 212
e 257 40
e 257 92
e 257 270
e 258 91
e 258 187
e 258 295
e 259 74
e 259 217
e 259 305
e 260 219
e 260 220
e 260 310
e 261 81
e 261 259
e 261 319
e 262 94
e 262 153
e 262 190
e 263 155
e 263 202
e 263 288
e 264 132
e 264 230
e 264 299
e 265 211
e 265 227
e 265 228
e 266 184
e 266 186
e 266 188
e 267 72
e 267 148
e 267 183
e 268 213
e 268 248
e 268 283
e 269 36
e 269 52
e 269 242
e 270 51
e 270 64
e 270 100
e 271 15
e 271 29
e 271 311
e 272 53
e 272 54
e 272 92
e 273 55
e 273 169
e 273 178
e 274 142
e 274 162
e 274 199
e 275 12
e 275 41
e 275 44
e 276 109
e 276 114
e 276 303
e 277 102
e 277 187
e 277 208
e 278 56
e 278 257
e 278 302
e 279 186
e 279 244
e 279 285
e 280 93
e 280 163
e 280 198
e 281 131
e 281 152
e 281 218
e 282 95
e 282 113
e 282 128
e 283 112
e 283 267
e 283 302
e 284 16
e 284 18
e 284 285
e 285 48
e 285 116
e 285 189
e 286 160
e 286 203
e 286 269
e 287 124
e 287 240
e 287 298
e 288 155
e 288 170
e 288 257
e 289 178
e 289 196
e 289 270
e 290 93
e 290 181
e 290 188
e 291 91
e 291 183
e 291 302
e 292 254
e 292 267
e 292 284
e 293 3
e 293 61
e 293 235
e 294 92
e 294 188
e 294 246
e 295 49
e 295 126
e 295 287
e 296 211
e 296 282
e 296 311
e 297 24
e 297 25
e 297 195
e 298 102
e 298 197
e 298 277
e 299 141
e 299 259
e 299 293
e 300 9
e 300 86
e 300 262
e 301 107
e 301 246
e 301 280
e 302 211
e 302 257
e 302 303
e 303 19
e 303 241
e 303 310
e 304 15
e 304 98
e 304 284
e 305 1
e 305 23
e 305 289
e 306 62
e 306 151
e 306 275
e 307 9
e 307 143
e 307 196
e 308 145
e 308 256
e 308 306
e 309 11
e 309 78
e 309 118
e 310 54
e 310 169
e 310 273
e 311 7
e 311 203
e 311 264
e 312 31
e 312 98
e 312 191
e 313 40
e 313 138
e 313 308
e 314 150
e 314 167
e 314 192
e 315 152
e 315 230
e 315 252
e 316 30
e 316 111
e 316 317
e 317 6
e 317 49
e 317 240
e 318 231
e 318 239
e 318 289
e 319 74
e 319 82
e 319 131
e 320 258
e 320 279
e 320 291
